
Welcome to IBM(R) ILOG(R) CPLEX(R) Interactive Optimizer Community Edition 12.9.0.0
  with Simplex, Mixed Integer & Barrier Optimizers
5725-A06 5725-A29 5724-Y48 5724-Y49 5724-Y54 5724-Y55 5655-Y21
Copyright IBM Corp. 1988, 2019.  All Rights Reserved.

Type 'help' for a list of available commands.
Type 'help' followed by a command name for more
information on commands.

CPLEX> Problem 'files/767.lp' read.
Read time = 0.00 sec. (0.06 ticks)
CPLEX> Tried aggregator 2 times.
MIP Presolve eliminated 133 rows and 84 columns.
MIP Presolve modified 48 coefficients.
Aggregator did 294 substitutions.
Reduced MIP has 55 rows, 295 columns, and 594 nonzeros.
Reduced MIP has 294 binaries, 0 generals, 0 SOSs, and 0 indicators.
Presolve time = 0.00 sec. (1.12 ticks)
Found incumbent of value 196.000000 after 0.00 sec. (1.29 ticks)
Probing time = 0.00 sec. (0.16 ticks)
Cover probing fixed 0 vars, tightened 6 bounds.
Tried aggregator 1 time.
Reduced MIP has 55 rows, 295 columns, and 594 nonzeros.
Reduced MIP has 294 binaries, 0 generals, 0 SOSs, and 0 indicators.
Presolve time = 0.00 sec. (0.52 ticks)
Probing time = 0.00 sec. (0.05 ticks)
MIP emphasis: balance optimality and feasibility.
MIP search method: dynamic search.
Parallel mode: deterministic, using up to 4 threads.
Root relaxation solution time = 0.00 sec. (0.52 ticks)

        Nodes                                         Cuts/
   Node  Left     Objective  IInf  Best Integer    Best Bound    ItCnt     Gap

*     0+    0                          196.0000        7.0000            96.43%
      0     0       65.3333    10      196.0000       65.3333       84   66.67%
*     0+    0                           68.5000       65.3333             4.62%
      0     0       65.3333    14       68.5000      Cuts: 11       95    4.62%
*     0+    0                           68.0000       65.3333             3.92%
      0     0       65.3333    12       68.0000      Cuts: 13      104    3.92%
*     0+    0                           67.5000       65.3333             3.21%
      0     0       65.3333    18       67.5000       Cuts: 8      113    3.21%
*     0+    0                           67.0000       65.3333             2.49%
*     0+    0                           66.5000       65.3333             1.75%
*     0+    0                           66.0000       65.3333             1.01%
*     0+    0                           65.5000       65.3333             0.25%
      0     0        cutoff             65.5000       65.5000      113    0.00%
Elapsed time = 0.06 sec. (19.82 ticks, tree = 0.01 MB, solutions = 8)

Mixed integer rounding cuts applied:  1

Root node processing (before b&c):
  Real time             =    0.06 sec. (19.87 ticks)
Parallel b&c, 4 threads:
  Real time             =    0.00 sec. (0.00 ticks)
  Sync time (average)   =    0.00 sec.
  Wait time (average)   =    0.00 sec.
                          ------------
Total (root+branch&cut) =    0.06 sec. (19.87 ticks)

Solution pool: 8 solutions saved.

MIP - Integer optimal solution:  Objective =  6.5500000000e+01
Solution time =    0.06 sec.  Iterations = 113  Nodes = 0
Deterministic time = 19.88 ticks  (348.35 ticks/sec)

CPLEX> Incumbent solution
Variable Name           Solution Value
r                            65.500000
x111                          1.000000
x121                          1.000000
x112                          1.500000
x122                          1.500000
x123                          2.000000
x153                          2.000000
x154                          2.500000
x164                          2.500000
x115                          3.000000
x135                          3.000000
x116                          3.500000
x166                          3.500000
x117                          4.000000
x157                          4.000000
x211                          1.500000
x221                          1.500000
x212                          2.000000
x262                          2.000000
x213                          2.500000
x223                          2.500000
x214                          3.000000
x234                          3.000000
x225                          3.500000
x265                          3.500000
x216                          4.000000
x266                          4.000000
x227                          4.500000
x247                          4.500000
x311                          2.000000
x321                          2.000000
x312                          2.500000
x342                          2.500000
x313                          3.000000
x323                          3.000000
x314                          3.500000
x364                          3.500000
x315                          4.000000
x325                          4.000000
x336                          4.500000
x346                          4.500000
x347                          5.000000
x357                          5.000000
x411                          2.500000
x451                          2.500000
x452                          3.000000
x462                          3.000000
x413                          3.500000
x433                          3.500000
x424                          4.000000
x454                          4.000000
x445                          4.500000
x455                          4.500000
x446                          5.000000
x466                          5.000000
x437                          5.500000
x457                          5.500000
x521                          3.000000
x531                          3.000000
x512                          3.500000
x562                          3.500000
x533                          4.000000
x563                          4.000000
x524                          4.500000
x564                          4.500000
x525                          5.000000
x545                          5.000000
x556                          5.500000
x566                          5.500000
x547                          6.000000
x557                          6.000000
x621                          3.500000
x631                          3.500000
x622                          4.000000
x662                          4.000000
x613                          4.500000
x663                          4.500000
x644                          5.000000
x654                          5.000000
x635                          5.500000
x655                          5.500000
x636                          6.000000
x666                          6.000000
x627                          6.500000
x647                          6.500000
x721                          4.000000
x751                          4.000000
x712                          4.500000
x742                          4.500000
x723                          5.000000
x733                          5.000000
x734                          5.500000
x744                          5.500000
x715                          6.000000
x755                          6.000000
x736                          6.500000
x766                          6.500000
x737                          7.000000
x747                          7.000000
c11                          13.000000
c12                           5.000000
c13                           3.000000
c15                           9.000000
c16                           6.000000
c21                          13.000000
c22                          12.000000
c23                           3.000000
c24                           5.000000
c26                          10.000000
c31                          15.000000
c32                           9.000000
c33                           5.000000
c34                          12.000000
c35                           5.000000
c36                           4.000000
c41                           6.000000
c42                           4.000000
c43                           9.000000
c44                          10.000000
c45                          20.000000
c46                           8.000000
c51                           4.000000
c52                          13.000000
c53                           7.000000
c54                          11.000000
c55                          12.000000
c56                          18.000000
c61                           5.000000
c62                          14.000000
c63                          15.000000
c64                          12.000000
c65                          11.000000
c66                          15.000000
c71                          11.000000
c72                           9.000000
c73                          24.000000
c74                          17.000000
c75                          10.000000
c76                           7.000000
d11                           7.000000
d21                          15.000000
d31                           7.000000
d51                           7.000000
d12                          14.000000
d22                           6.000000
d42                           7.000000
d52                           3.000000
d62                          13.000000
d13                          14.000000
d23                          13.000000
d33                          13.000000
d53                           2.000000
d63                           9.000000
d14                           7.000000
d24                           9.000000
d34                           9.000000
d44                          11.000000
d54                          12.000000
d64                          11.000000
d15                          13.000000
d25                          13.000000
d35                           9.000000
d45                          10.000000
d55                          16.000000
d65                           4.000000
d16                           8.000000
d36                          17.000000
d46                          10.000000
d56                           6.000000
d66                          31.000000
d17                           4.000000
d27                          11.000000
d37                          13.000000
d47                          29.000000
d57                          21.000000
u111                          1.000000
u121                          1.000000
u112                          1.000000
u122                          1.000000
u123                          1.000000
u153                          1.000000
u154                          1.000000
u164                          1.000000
u115                          1.000000
u135                          1.000000
u116                          1.000000
u166                          1.000000
u117                          1.000000
u157                          1.000000
u211                          1.000000
u221                          1.000000
u212                          1.000000
u262                          1.000000
u213                          1.000000
u223                          1.000000
u214                          1.000000
u234                          1.000000
u225                          1.000000
u265                          1.000000
u216                          1.000000
u266                          1.000000
u227                          1.000000
u247                          1.000000
u311                          1.000000
u321                          1.000000
u312                          1.000000
u342                          1.000000
u313                          1.000000
u323                          1.000000
u314                          1.000000
u364                          1.000000
u315                          1.000000
u325                          1.000000
u336                          1.000000
u346                          1.000000
u347                          1.000000
u357                          1.000000
u411                          1.000000
u451                          1.000000
u452                          1.000000
u462                          1.000000
u413                          1.000000
u433                          1.000000
u424                          1.000000
u454                          1.000000
u445                          1.000000
u455                          1.000000
u446                          1.000000
u466                          1.000000
u437                          1.000000
u457                          1.000000
u521                          1.000000
u531                          1.000000
u512                          1.000000
u562                          1.000000
u533                          1.000000
u563                          1.000000
u524                          1.000000
u564                          1.000000
u525                          1.000000
u545                          1.000000
u556                          1.000000
u566                          1.000000
u547                          1.000000
u557                          1.000000
u621                          1.000000
u631                          1.000000
u622                          1.000000
u662                          1.000000
u613                          1.000000
u663                          1.000000
u644                          1.000000
u654                          1.000000
u635                          1.000000
u655                          1.000000
u636                          1.000000
u666                          1.000000
u627                          1.000000
u647                          1.000000
u721                          1.000000
u751                          1.000000
u712                          1.000000
u742                          1.000000
u723                          1.000000
u733                          1.000000
u734                          1.000000
u744                          1.000000
u715                          1.000000
u755                          1.000000
u736                          1.000000
u766                          1.000000
u737                          1.000000
u747                          1.000000
All other variables in the range 1-673 are 0.
CPLEX> 